NAME : 10_3_3_2_(39).dat
COMMENT : Henke, Speranza, Wäscher, 2015
TYPE : MCVRP
DIMENSION : 11
EDGE_WEIGHT_TYPE : DISTANCE_MATRIX
CAPACITY : 1000
VEHICLES : 3
PRODUCT TYPES : 3
COMPARTMENTS : 3
NODE_COORD_SECTION
1 50 50
2 97.82 26.2
3 35.45 43.86
4 60.52 42.18
5 83.6 3.18
6 18.54 35.55
7 64.34 33.43
8 5.1 25.9
9 46.61 48.77
10 67.94 35.41
11 60.79 41.77
DEMAND_SECTION
1 0 0 0
2 272 113 0
3 3 0 49
4 0 67 9
5 87 9 0
6 121 0 73
7 192 0 81
8 0 25 12
9 0 87 31
10 0 145 79
11 158 53 0
DEPOT_SECTION
1
EOF